NAME: random-44-31366
TYPE: TSP
COMMENT: size=44 seed=31366
DIMENSION: 90
EDGE_WEIGHT_TYPE: EUC_2D
NODE_COORD_SECTION
+0 362 259
-0 362 259
+1 10 603
-1 779 777
+2 836 395
-2 924 466
+3 664 24
-3 870 840
+4 685 887
-4 618 880
+5 80 827
-5 463 414
+6 580 509
-6 286 778
+7 600 139
-7 711 487
+8 288 986
-8 171 813
+9 893 459
-9 566 513
+10 966 706
-10 936 13
+11 65 157
-11 731 703
+12 213 526
-12 839 350
+13 802 70
-13 92 706
+14 164 451
-14 834 845
+15 627 628
-15 416 902
+16 457 580
-16 73 613
+17 79 967
-17 933 343
+18 980 444
-18 38 75
+19 500 386
-19 955 628
+20 735 400
-20 655 48
+21 471 708
-21 906 673
+22 910 178
-22 650 642
+23 7 759
-23 852 11
+24 581 424
-24 99 941
+25 475 930
-25 610 377
+26 955 318
-26 86 10
+27 943 19
-27 539 456
+28 105 164
-28 857 151
+29 855 603
-29 489 562
+30 622 898
-30 586 810
+31 149 480
-31 912 305
+32 765 619
-32 585 146
+33 407 795
-33 375 319
+34 292 923
-34 787 32
+35 617 497
-35 840 900
+36 682 953
-36 384 968
+37 134 862
-37 314 53
+38 179 299
-38 753 779
+39 596 891
-39 24 833
+40 887 75
-40 41 195
+41 278 597
-41 601 166
+42 410 201
-42 958 191
+43 381 819
-43 388 967
+44 61 855
-44 110 795
PRECEDENCE_SECTION
+0 -0
+1 -1
+2 -2
+3 -3
+4 -4
+5 -5
+6 -6
+7 -7
+8 -8
+9 -9
+10 -10
+11 -11
+12 -12
+13 -13
+14 -14
+15 -15
+16 -16
+17 -17
+18 -18
+19 -19
+20 -20
+21 -21
+22 -22
+23 -23
+24 -24
+25 -25
+26 -26
+27 -27
+28 -28
+29 -29
+30 -30
+31 -31
+32 -32
+33 -33
+34 -34
+35 -35
+36 -36
+37 -37
+38 -38
+39 -39
+40 -40
+41 -41
+42 -42
+43 -43
+44 -44
EOF
